
;this file is automatically generated: Tue Feb 23 13:38:03 CST 2021

;declarations generated

(declare-fun oclExcludes ( Int Int) Bool)
(declare-fun Cardinality ( Int) Int)
(declare-fun type_a3cce88d_7794_4626_9e84_e3acc602193e_Class19 ( Int) Bool)
(declare-fun type_a3cce88d_7794_4626_9e84_e3acc602193e_Class18 ( Int) Bool)
(declare-fun type_a3cce88d_7794_4626_9e84_e3acc602193e_Class13 ( Int) Bool)
(declare-fun type_a3cce88d_7794_4626_9e84_e3acc602193e_Class12 ( Int) Bool)
(declare-fun type_a3cce88d_7794_4626_9e84_e3acc602193e_Class11 ( Int) Bool)
(declare-fun type_a3cce88d_7794_4626_9e84_e3acc602193e_Class10 ( Int) Bool)
(declare-fun type_a3cce88d_7794_4626_9e84_e3acc602193e_Class17 ( Int) Bool)
(declare-fun type_a3cce88d_7794_4626_9e84_e3acc602193e_Class16 ( Int) Bool)
(declare-fun type_a3cce88d_7794_4626_9e84_e3acc602193e_Class15 ( Int) Bool)
(declare-fun type_a3cce88d_7794_4626_9e84_e3acc602193e_Class14 ( Int) Bool)
(declare-fun class34_Class34BoolAttr0 ( Int) Bool)
(declare-fun class34_Class34BoolAttr1 ( Int) Bool)
(declare-fun oclSelect ( Int Bool) Int)
(declare-fun obj_65aab02c_d6f8_4dae_bc23_176e08ec9273 ( Int) Int)
(declare-fun type_a3cce88d_7794_4626_9e84_e3acc602193e_Class42 ( Int) Bool)
(declare-fun type_a3cce88d_7794_4626_9e84_e3acc602193e_Class41 ( Int) Bool)
(declare-fun type_a3cce88d_7794_4626_9e84_e3acc602193e_Class40 ( Int) Bool)
(declare-fun type_a3cce88d_7794_4626_9e84_e3acc602193e_Class45 ( Int) Bool)
(declare-fun type_a3cce88d_7794_4626_9e84_e3acc602193e_Class44 ( Int) Bool)
(declare-fun type_a3cce88d_7794_4626_9e84_e3acc602193e_Class43 ( Int) Bool)
(declare-fun Enum0 ( Int) Int)
(declare-fun Enum1 ( Int) Int)
(declare-fun Enum2 ( Int) Int)
(declare-fun type_a3cce88d_7794_4626_9e84_e3acc602193e_Class20 ( Int) Bool)
(declare-fun type_a3cce88d_7794_4626_9e84_e3acc602193e_Class29 ( Int) Bool)
(declare-fun container_ ( Int) Int)
(declare-fun type_a3cce88d_7794_4626_9e84_e3acc602193e_Class24 ( Int) Bool)
(declare-fun type_a3cce88d_7794_4626_9e84_e3acc602193e_Class23 ( Int) Bool)
(declare-fun type_a3cce88d_7794_4626_9e84_e3acc602193e_Class22 ( Int) Bool)
(declare-fun type_a3cce88d_7794_4626_9e84_e3acc602193e_Class21 ( Int) Bool)
(declare-fun type_a3cce88d_7794_4626_9e84_e3acc602193e_Class28 ( Int) Bool)
(declare-fun type_a3cce88d_7794_4626_9e84_e3acc602193e_Class27 ( Int) Bool)
(declare-fun type_a3cce88d_7794_4626_9e84_e3acc602193e_Class26 ( Int) Bool)
(declare-fun type_a3cce88d_7794_4626_9e84_e3acc602193e_Class25 ( Int) Bool)
(declare-fun type_a3cce88d_7794_4626_9e84_e3acc602193e_Class31 ( Int) Bool)
(declare-fun type_a3cce88d_7794_4626_9e84_e3acc602193e_Class30 ( Int) Bool)
(declare-fun type_a3cce88d_7794_4626_9e84_e3acc602193e_Class35 ( Int) Bool)
(declare-fun type_a3cce88d_7794_4626_9e84_e3acc602193e_Class34 ( Int) Bool)
(declare-fun type_a3cce88d_7794_4626_9e84_e3acc602193e_Class33 ( Int) Bool)
(declare-fun type_a3cce88d_7794_4626_9e84_e3acc602193e_Class32 ( Int) Bool)
(declare-fun type_a3cce88d_7794_4626_9e84_e3acc602193e_Class39 ( Int) Bool)
(declare-fun type_a3cce88d_7794_4626_9e84_e3acc602193e_Class38 ( Int) Bool)
(declare-fun type_a3cce88d_7794_4626_9e84_e3acc602193e_Class37 ( Int) Bool)
(declare-fun type_a3cce88d_7794_4626_9e84_e3acc602193e_Class36 ( Int) Bool)
(declare-fun type_a3cce88d_7794_4626_9e84_e3acc602193e_Class0 ( Int) Bool)
(declare-fun oclIncludes ( Int Int) Bool)
(declare-fun ObjAt ( Int Int) Int)
(declare-fun type_a3cce88d_7794_4626_9e84_e3acc602193e_Class9 ( Int) Bool)
(declare-fun type_a3cce88d_7794_4626_9e84_e3acc602193e_Class1 ( Int) Bool)
(declare-fun type_a3cce88d_7794_4626_9e84_e3acc602193e_Class2 ( Int) Bool)
(declare-fun type_a3cce88d_7794_4626_9e84_e3acc602193e_Class3 ( Int) Bool)
(declare-fun type_a3cce88d_7794_4626_9e84_e3acc602193e_Class4 ( Int) Bool)
(declare-fun type_a3cce88d_7794_4626_9e84_e3acc602193e_Class5 ( Int) Bool)
(declare-fun type_a3cce88d_7794_4626_9e84_e3acc602193e_Class6 ( Int) Bool)
(declare-fun type_a3cce88d_7794_4626_9e84_e3acc602193e_Class7 ( Int) Bool)
(declare-fun type_a3cce88d_7794_4626_9e84_e3acc602193e_Class8 ( Int) Bool)

;formula(s) generated
(assert (! (forall ((c1 Int)) (=> ( type_a3cce88d_7794_4626_9e84_e3acc602193e_Class34 c1 )  ( class34_Class34BoolAttr0 ( obj_65aab02c_d6f8_4dae_bc23_176e08ec9273 c1 )  ) )):named l0))
(assert (! (forall ((v Int)) (=> ( type_a3cce88d_7794_4626_9e84_e3acc602193e_Class34 v )  (or ( class34_Class34BoolAttr1 ( obj_65aab02c_d6f8_4dae_bc23_176e08ec9273 v )  )  (or (forall ((v Int)) (=> ( type_a3cce88d_7794_4626_9e84_e3acc602193e_Class34 v )  (or ( class34_Class34BoolAttr0 ( obj_65aab02c_d6f8_4dae_bc23_176e08ec9273 v )  )  (and (forall ((v Int)) (=> ( type_a3cce88d_7794_4626_9e84_e3acc602193e_Class34 v )  ( class34_Class34BoolAttr0 ( obj_65aab02c_d6f8_4dae_bc23_176e08ec9273 v )  ) )) (forall ((v Int)) (=> ( type_a3cce88d_7794_4626_9e84_e3acc602193e_Class34 v )  ( class34_Class34BoolAttr1 ( obj_65aab02c_d6f8_4dae_bc23_176e08ec9273 v )  ) )))))) (forall ((v Int)) (=> ( type_a3cce88d_7794_4626_9e84_e3acc602193e_Class34 v )  ( class34_Class34BoolAttr1 ( obj_65aab02c_d6f8_4dae_bc23_176e08ec9273 v )  ) )))))):named l1))
(assert (! (exists ((o Int)) (and (and (and ( type_a3cce88d_7794_4626_9e84_e3acc602193e_Class0 ( obj_65aab02c_d6f8_4dae_bc23_176e08ec9273 o )  )  ( type_a3cce88d_7794_4626_9e84_e3acc602193e_Class22 ( obj_65aab02c_d6f8_4dae_bc23_176e08ec9273 o )  ) ) ( type_a3cce88d_7794_4626_9e84_e3acc602193e_Class35 ( obj_65aab02c_d6f8_4dae_bc23_176e08ec9273 o )  ) ) ( type_a3cce88d_7794_4626_9e84_e3acc602193e_Class2 ( obj_65aab02c_d6f8_4dae_bc23_176e08ec9273 o )  ) )):named c0))
(assert (! (exists ((o Int)) ( type_a3cce88d_7794_4626_9e84_e3acc602193e_Class1 ( obj_65aab02c_d6f8_4dae_bc23_176e08ec9273 o )  ) ):named c1))
(assert (! (exists ((o Int)) (and (and (and (and ( type_a3cce88d_7794_4626_9e84_e3acc602193e_Class10 ( obj_65aab02c_d6f8_4dae_bc23_176e08ec9273 o )  )  ( type_a3cce88d_7794_4626_9e84_e3acc602193e_Class16 ( obj_65aab02c_d6f8_4dae_bc23_176e08ec9273 o )  ) ) ( type_a3cce88d_7794_4626_9e84_e3acc602193e_Class15 ( obj_65aab02c_d6f8_4dae_bc23_176e08ec9273 o )  ) ) ( type_a3cce88d_7794_4626_9e84_e3acc602193e_Class41 ( obj_65aab02c_d6f8_4dae_bc23_176e08ec9273 o )  ) ) ( type_a3cce88d_7794_4626_9e84_e3acc602193e_Class2 ( obj_65aab02c_d6f8_4dae_bc23_176e08ec9273 o )  ) )):named c2))
(assert (! (exists ((o Int)) ( type_a3cce88d_7794_4626_9e84_e3acc602193e_Class11 ( obj_65aab02c_d6f8_4dae_bc23_176e08ec9273 o )  ) ):named c3))
(assert (! (exists ((o Int)) (and (and (and (and ( type_a3cce88d_7794_4626_9e84_e3acc602193e_Class12 ( obj_65aab02c_d6f8_4dae_bc23_176e08ec9273 o )  )  ( type_a3cce88d_7794_4626_9e84_e3acc602193e_Class22 ( obj_65aab02c_d6f8_4dae_bc23_176e08ec9273 o )  ) ) ( type_a3cce88d_7794_4626_9e84_e3acc602193e_Class35 ( obj_65aab02c_d6f8_4dae_bc23_176e08ec9273 o )  ) ) ( type_a3cce88d_7794_4626_9e84_e3acc602193e_Class0 ( obj_65aab02c_d6f8_4dae_bc23_176e08ec9273 o )  ) ) ( type_a3cce88d_7794_4626_9e84_e3acc602193e_Class2 ( obj_65aab02c_d6f8_4dae_bc23_176e08ec9273 o )  ) )):named c4))
(assert (! (exists ((o Int)) (and (and (and ( type_a3cce88d_7794_4626_9e84_e3acc602193e_Class13 ( obj_65aab02c_d6f8_4dae_bc23_176e08ec9273 o )  )  ( type_a3cce88d_7794_4626_9e84_e3acc602193e_Class16 ( obj_65aab02c_d6f8_4dae_bc23_176e08ec9273 o )  ) ) ( type_a3cce88d_7794_4626_9e84_e3acc602193e_Class15 ( obj_65aab02c_d6f8_4dae_bc23_176e08ec9273 o )  ) ) ( type_a3cce88d_7794_4626_9e84_e3acc602193e_Class2 ( obj_65aab02c_d6f8_4dae_bc23_176e08ec9273 o )  ) )):named c5))
(assert (! (exists ((o Int)) (and (and (and (and (and (and (and ( type_a3cce88d_7794_4626_9e84_e3acc602193e_Class14 ( obj_65aab02c_d6f8_4dae_bc23_176e08ec9273 o )  )  ( type_a3cce88d_7794_4626_9e84_e3acc602193e_Class33 ( obj_65aab02c_d6f8_4dae_bc23_176e08ec9273 o )  ) ) ( type_a3cce88d_7794_4626_9e84_e3acc602193e_Class13 ( obj_65aab02c_d6f8_4dae_bc23_176e08ec9273 o )  ) ) ( type_a3cce88d_7794_4626_9e84_e3acc602193e_Class16 ( obj_65aab02c_d6f8_4dae_bc23_176e08ec9273 o )  ) ) ( type_a3cce88d_7794_4626_9e84_e3acc602193e_Class15 ( obj_65aab02c_d6f8_4dae_bc23_176e08ec9273 o )  ) ) ( type_a3cce88d_7794_4626_9e84_e3acc602193e_Class4 ( obj_65aab02c_d6f8_4dae_bc23_176e08ec9273 o )  ) ) ( type_a3cce88d_7794_4626_9e84_e3acc602193e_Class41 ( obj_65aab02c_d6f8_4dae_bc23_176e08ec9273 o )  ) ) ( type_a3cce88d_7794_4626_9e84_e3acc602193e_Class2 ( obj_65aab02c_d6f8_4dae_bc23_176e08ec9273 o )  ) )):named c6))
(assert (! (exists ((o Int)) (and ( type_a3cce88d_7794_4626_9e84_e3acc602193e_Class15 ( obj_65aab02c_d6f8_4dae_bc23_176e08ec9273 o )  )  ( type_a3cce88d_7794_4626_9e84_e3acc602193e_Class2 ( obj_65aab02c_d6f8_4dae_bc23_176e08ec9273 o )  ) )):named c7))
(assert (! (exists ((o Int)) (and (and ( type_a3cce88d_7794_4626_9e84_e3acc602193e_Class16 ( obj_65aab02c_d6f8_4dae_bc23_176e08ec9273 o )  )  ( type_a3cce88d_7794_4626_9e84_e3acc602193e_Class15 ( obj_65aab02c_d6f8_4dae_bc23_176e08ec9273 o )  ) ) ( type_a3cce88d_7794_4626_9e84_e3acc602193e_Class2 ( obj_65aab02c_d6f8_4dae_bc23_176e08ec9273 o )  ) )):named c8))
(assert (! (exists ((o Int)) (and (and (and (and ( type_a3cce88d_7794_4626_9e84_e3acc602193e_Class17 ( obj_65aab02c_d6f8_4dae_bc23_176e08ec9273 o )  )  ( type_a3cce88d_7794_4626_9e84_e3acc602193e_Class24 ( obj_65aab02c_d6f8_4dae_bc23_176e08ec9273 o )  ) ) ( type_a3cce88d_7794_4626_9e84_e3acc602193e_Class26 ( obj_65aab02c_d6f8_4dae_bc23_176e08ec9273 o )  ) ) ( type_a3cce88d_7794_4626_9e84_e3acc602193e_Class32 ( obj_65aab02c_d6f8_4dae_bc23_176e08ec9273 o )  ) ) ( type_a3cce88d_7794_4626_9e84_e3acc602193e_Class2 ( obj_65aab02c_d6f8_4dae_bc23_176e08ec9273 o )  ) )):named c9))
(assert (! (exists ((o Int)) ( type_a3cce88d_7794_4626_9e84_e3acc602193e_Class18 ( obj_65aab02c_d6f8_4dae_bc23_176e08ec9273 o )  ) ):named c10))
(assert (! (exists ((o Int)) ( type_a3cce88d_7794_4626_9e84_e3acc602193e_Class19 ( obj_65aab02c_d6f8_4dae_bc23_176e08ec9273 o )  ) ):named c11))
(assert (! (exists ((o Int)) ( type_a3cce88d_7794_4626_9e84_e3acc602193e_Class2 ( obj_65aab02c_d6f8_4dae_bc23_176e08ec9273 o )  ) ):named c12))
(assert (! (exists ((o Int)) (and (and ( type_a3cce88d_7794_4626_9e84_e3acc602193e_Class20 ( obj_65aab02c_d6f8_4dae_bc23_176e08ec9273 o )  )  ( type_a3cce88d_7794_4626_9e84_e3acc602193e_Class21 ( obj_65aab02c_d6f8_4dae_bc23_176e08ec9273 o )  ) ) ( type_a3cce88d_7794_4626_9e84_e3acc602193e_Class2 ( obj_65aab02c_d6f8_4dae_bc23_176e08ec9273 o )  ) )):named c13))
(assert (! (exists ((o Int)) (and ( type_a3cce88d_7794_4626_9e84_e3acc602193e_Class21 ( obj_65aab02c_d6f8_4dae_bc23_176e08ec9273 o )  )  ( type_a3cce88d_7794_4626_9e84_e3acc602193e_Class2 ( obj_65aab02c_d6f8_4dae_bc23_176e08ec9273 o )  ) )):named c14))
(assert (! (exists ((o Int)) (and (and ( type_a3cce88d_7794_4626_9e84_e3acc602193e_Class22 ( obj_65aab02c_d6f8_4dae_bc23_176e08ec9273 o )  )  ( type_a3cce88d_7794_4626_9e84_e3acc602193e_Class35 ( obj_65aab02c_d6f8_4dae_bc23_176e08ec9273 o )  ) ) ( type_a3cce88d_7794_4626_9e84_e3acc602193e_Class2 ( obj_65aab02c_d6f8_4dae_bc23_176e08ec9273 o )  ) )):named c15))
(assert (! (exists ((o Int)) (and (and (and (and (and (and ( type_a3cce88d_7794_4626_9e84_e3acc602193e_Class23 ( obj_65aab02c_d6f8_4dae_bc23_176e08ec9273 o )  )  ( type_a3cce88d_7794_4626_9e84_e3acc602193e_Class12 ( obj_65aab02c_d6f8_4dae_bc23_176e08ec9273 o )  ) ) ( type_a3cce88d_7794_4626_9e84_e3acc602193e_Class22 ( obj_65aab02c_d6f8_4dae_bc23_176e08ec9273 o )  ) ) ( type_a3cce88d_7794_4626_9e84_e3acc602193e_Class25 ( obj_65aab02c_d6f8_4dae_bc23_176e08ec9273 o )  ) ) ( type_a3cce88d_7794_4626_9e84_e3acc602193e_Class35 ( obj_65aab02c_d6f8_4dae_bc23_176e08ec9273 o )  ) ) ( type_a3cce88d_7794_4626_9e84_e3acc602193e_Class0 ( obj_65aab02c_d6f8_4dae_bc23_176e08ec9273 o )  ) ) ( type_a3cce88d_7794_4626_9e84_e3acc602193e_Class2 ( obj_65aab02c_d6f8_4dae_bc23_176e08ec9273 o )  ) )):named c16))
(assert (! (exists ((o Int)) (and (and (and ( type_a3cce88d_7794_4626_9e84_e3acc602193e_Class24 ( obj_65aab02c_d6f8_4dae_bc23_176e08ec9273 o )  )  ( type_a3cce88d_7794_4626_9e84_e3acc602193e_Class26 ( obj_65aab02c_d6f8_4dae_bc23_176e08ec9273 o )  ) ) ( type_a3cce88d_7794_4626_9e84_e3acc602193e_Class32 ( obj_65aab02c_d6f8_4dae_bc23_176e08ec9273 o )  ) ) ( type_a3cce88d_7794_4626_9e84_e3acc602193e_Class2 ( obj_65aab02c_d6f8_4dae_bc23_176e08ec9273 o )  ) )):named c17))
(assert (! (exists ((o Int)) (and (and (and (and (and ( type_a3cce88d_7794_4626_9e84_e3acc602193e_Class25 ( obj_65aab02c_d6f8_4dae_bc23_176e08ec9273 o )  )  ( type_a3cce88d_7794_4626_9e84_e3acc602193e_Class12 ( obj_65aab02c_d6f8_4dae_bc23_176e08ec9273 o )  ) ) ( type_a3cce88d_7794_4626_9e84_e3acc602193e_Class22 ( obj_65aab02c_d6f8_4dae_bc23_176e08ec9273 o )  ) ) ( type_a3cce88d_7794_4626_9e84_e3acc602193e_Class35 ( obj_65aab02c_d6f8_4dae_bc23_176e08ec9273 o )  ) ) ( type_a3cce88d_7794_4626_9e84_e3acc602193e_Class0 ( obj_65aab02c_d6f8_4dae_bc23_176e08ec9273 o )  ) ) ( type_a3cce88d_7794_4626_9e84_e3acc602193e_Class2 ( obj_65aab02c_d6f8_4dae_bc23_176e08ec9273 o )  ) )):named c18))
(assert (! (exists ((o Int)) (and (and ( type_a3cce88d_7794_4626_9e84_e3acc602193e_Class26 ( obj_65aab02c_d6f8_4dae_bc23_176e08ec9273 o )  )  ( type_a3cce88d_7794_4626_9e84_e3acc602193e_Class32 ( obj_65aab02c_d6f8_4dae_bc23_176e08ec9273 o )  ) ) ( type_a3cce88d_7794_4626_9e84_e3acc602193e_Class2 ( obj_65aab02c_d6f8_4dae_bc23_176e08ec9273 o )  ) )):named c19))
(assert (! (exists ((o Int)) (and ( type_a3cce88d_7794_4626_9e84_e3acc602193e_Class27 ( obj_65aab02c_d6f8_4dae_bc23_176e08ec9273 o )  )  ( type_a3cce88d_7794_4626_9e84_e3acc602193e_Class2 ( obj_65aab02c_d6f8_4dae_bc23_176e08ec9273 o )  ) )):named c20))
(assert (! (exists ((o Int)) ( type_a3cce88d_7794_4626_9e84_e3acc602193e_Class28 ( obj_65aab02c_d6f8_4dae_bc23_176e08ec9273 o )  ) ):named c21))
(assert (! (exists ((o Int)) ( type_a3cce88d_7794_4626_9e84_e3acc602193e_Class29 ( obj_65aab02c_d6f8_4dae_bc23_176e08ec9273 o )  ) ):named c22))
(assert (! (exists ((o Int)) ( type_a3cce88d_7794_4626_9e84_e3acc602193e_Class3 ( obj_65aab02c_d6f8_4dae_bc23_176e08ec9273 o )  ) ):named c23))
(assert (! (exists ((o Int)) (and ( type_a3cce88d_7794_4626_9e84_e3acc602193e_Class30 ( obj_65aab02c_d6f8_4dae_bc23_176e08ec9273 o )  )  ( type_a3cce88d_7794_4626_9e84_e3acc602193e_Class2 ( obj_65aab02c_d6f8_4dae_bc23_176e08ec9273 o )  ) )):named c24))
(assert (! (exists ((o Int)) (and (and (and (and ( type_a3cce88d_7794_4626_9e84_e3acc602193e_Class31 ( obj_65aab02c_d6f8_4dae_bc23_176e08ec9273 o )  )  ( type_a3cce88d_7794_4626_9e84_e3acc602193e_Class16 ( obj_65aab02c_d6f8_4dae_bc23_176e08ec9273 o )  ) ) ( type_a3cce88d_7794_4626_9e84_e3acc602193e_Class15 ( obj_65aab02c_d6f8_4dae_bc23_176e08ec9273 o )  ) ) ( type_a3cce88d_7794_4626_9e84_e3acc602193e_Class41 ( obj_65aab02c_d6f8_4dae_bc23_176e08ec9273 o )  ) ) ( type_a3cce88d_7794_4626_9e84_e3acc602193e_Class2 ( obj_65aab02c_d6f8_4dae_bc23_176e08ec9273 o )  ) )):named c25))
(assert (! (exists ((o Int)) (and ( type_a3cce88d_7794_4626_9e84_e3acc602193e_Class32 ( obj_65aab02c_d6f8_4dae_bc23_176e08ec9273 o )  )  ( type_a3cce88d_7794_4626_9e84_e3acc602193e_Class2 ( obj_65aab02c_d6f8_4dae_bc23_176e08ec9273 o )  ) )):named c26))
(assert (! (exists ((o Int)) (and (and (and (and (and ( type_a3cce88d_7794_4626_9e84_e3acc602193e_Class33 ( obj_65aab02c_d6f8_4dae_bc23_176e08ec9273 o )  )  ( type_a3cce88d_7794_4626_9e84_e3acc602193e_Class13 ( obj_65aab02c_d6f8_4dae_bc23_176e08ec9273 o )  ) ) ( type_a3cce88d_7794_4626_9e84_e3acc602193e_Class16 ( obj_65aab02c_d6f8_4dae_bc23_176e08ec9273 o )  ) ) ( type_a3cce88d_7794_4626_9e84_e3acc602193e_Class15 ( obj_65aab02c_d6f8_4dae_bc23_176e08ec9273 o )  ) ) ( type_a3cce88d_7794_4626_9e84_e3acc602193e_Class41 ( obj_65aab02c_d6f8_4dae_bc23_176e08ec9273 o )  ) ) ( type_a3cce88d_7794_4626_9e84_e3acc602193e_Class2 ( obj_65aab02c_d6f8_4dae_bc23_176e08ec9273 o )  ) )):named c27))
(assert (! (exists ((o Int)) ( type_a3cce88d_7794_4626_9e84_e3acc602193e_Class34 ( obj_65aab02c_d6f8_4dae_bc23_176e08ec9273 o )  ) ):named c28))
(assert (! (exists ((o Int)) (and ( type_a3cce88d_7794_4626_9e84_e3acc602193e_Class35 ( obj_65aab02c_d6f8_4dae_bc23_176e08ec9273 o )  )  ( type_a3cce88d_7794_4626_9e84_e3acc602193e_Class2 ( obj_65aab02c_d6f8_4dae_bc23_176e08ec9273 o )  ) )):named c29))
(assert (! (exists ((o Int)) ( type_a3cce88d_7794_4626_9e84_e3acc602193e_Class36 ( obj_65aab02c_d6f8_4dae_bc23_176e08ec9273 o )  ) ):named c30))
(assert (! (exists ((o Int)) ( type_a3cce88d_7794_4626_9e84_e3acc602193e_Class37 ( obj_65aab02c_d6f8_4dae_bc23_176e08ec9273 o )  ) ):named c31))
(assert (! (exists ((o Int)) (and ( type_a3cce88d_7794_4626_9e84_e3acc602193e_Class38 ( obj_65aab02c_d6f8_4dae_bc23_176e08ec9273 o )  )  ( type_a3cce88d_7794_4626_9e84_e3acc602193e_Class2 ( obj_65aab02c_d6f8_4dae_bc23_176e08ec9273 o )  ) )):named c32))
(assert (! (exists ((o Int)) ( type_a3cce88d_7794_4626_9e84_e3acc602193e_Class39 ( obj_65aab02c_d6f8_4dae_bc23_176e08ec9273 o )  ) ):named c33))
(assert (! (exists ((o Int)) (and (and (and (and (and (and ( type_a3cce88d_7794_4626_9e84_e3acc602193e_Class4 ( obj_65aab02c_d6f8_4dae_bc23_176e08ec9273 o )  )  ( type_a3cce88d_7794_4626_9e84_e3acc602193e_Class33 ( obj_65aab02c_d6f8_4dae_bc23_176e08ec9273 o )  ) ) ( type_a3cce88d_7794_4626_9e84_e3acc602193e_Class13 ( obj_65aab02c_d6f8_4dae_bc23_176e08ec9273 o )  ) ) ( type_a3cce88d_7794_4626_9e84_e3acc602193e_Class16 ( obj_65aab02c_d6f8_4dae_bc23_176e08ec9273 o )  ) ) ( type_a3cce88d_7794_4626_9e84_e3acc602193e_Class15 ( obj_65aab02c_d6f8_4dae_bc23_176e08ec9273 o )  ) ) ( type_a3cce88d_7794_4626_9e84_e3acc602193e_Class41 ( obj_65aab02c_d6f8_4dae_bc23_176e08ec9273 o )  ) ) ( type_a3cce88d_7794_4626_9e84_e3acc602193e_Class2 ( obj_65aab02c_d6f8_4dae_bc23_176e08ec9273 o )  ) )):named c34))
(assert (! (exists ((o Int)) (and (and (and ( type_a3cce88d_7794_4626_9e84_e3acc602193e_Class40 ( obj_65aab02c_d6f8_4dae_bc23_176e08ec9273 o )  )  ( type_a3cce88d_7794_4626_9e84_e3acc602193e_Class21 ( obj_65aab02c_d6f8_4dae_bc23_176e08ec9273 o )  ) ) ( type_a3cce88d_7794_4626_9e84_e3acc602193e_Class2 ( obj_65aab02c_d6f8_4dae_bc23_176e08ec9273 o )  ) ) ( type_a3cce88d_7794_4626_9e84_e3acc602193e_Class20 ( obj_65aab02c_d6f8_4dae_bc23_176e08ec9273 o )  ) )):named c35))
(assert (! (exists ((o Int)) (and (and (and ( type_a3cce88d_7794_4626_9e84_e3acc602193e_Class41 ( obj_65aab02c_d6f8_4dae_bc23_176e08ec9273 o )  )  ( type_a3cce88d_7794_4626_9e84_e3acc602193e_Class16 ( obj_65aab02c_d6f8_4dae_bc23_176e08ec9273 o )  ) ) ( type_a3cce88d_7794_4626_9e84_e3acc602193e_Class15 ( obj_65aab02c_d6f8_4dae_bc23_176e08ec9273 o )  ) ) ( type_a3cce88d_7794_4626_9e84_e3acc602193e_Class2 ( obj_65aab02c_d6f8_4dae_bc23_176e08ec9273 o )  ) )):named c36))
(assert (! (exists ((o Int)) (and (and (and ( type_a3cce88d_7794_4626_9e84_e3acc602193e_Class42 ( obj_65aab02c_d6f8_4dae_bc23_176e08ec9273 o )  )  ( type_a3cce88d_7794_4626_9e84_e3acc602193e_Class22 ( obj_65aab02c_d6f8_4dae_bc23_176e08ec9273 o )  ) ) ( type_a3cce88d_7794_4626_9e84_e3acc602193e_Class35 ( obj_65aab02c_d6f8_4dae_bc23_176e08ec9273 o )  ) ) ( type_a3cce88d_7794_4626_9e84_e3acc602193e_Class2 ( obj_65aab02c_d6f8_4dae_bc23_176e08ec9273 o )  ) )):named c37))
(assert (! (exists ((o Int)) ( type_a3cce88d_7794_4626_9e84_e3acc602193e_Class43 ( obj_65aab02c_d6f8_4dae_bc23_176e08ec9273 o )  ) ):named c38))
(assert (! (exists ((o Int)) (and (and (and (and (and (and ( type_a3cce88d_7794_4626_9e84_e3acc602193e_Class44 ( obj_65aab02c_d6f8_4dae_bc23_176e08ec9273 o )  )  ( type_a3cce88d_7794_4626_9e84_e3acc602193e_Class33 ( obj_65aab02c_d6f8_4dae_bc23_176e08ec9273 o )  ) ) ( type_a3cce88d_7794_4626_9e84_e3acc602193e_Class13 ( obj_65aab02c_d6f8_4dae_bc23_176e08ec9273 o )  ) ) ( type_a3cce88d_7794_4626_9e84_e3acc602193e_Class16 ( obj_65aab02c_d6f8_4dae_bc23_176e08ec9273 o )  ) ) ( type_a3cce88d_7794_4626_9e84_e3acc602193e_Class15 ( obj_65aab02c_d6f8_4dae_bc23_176e08ec9273 o )  ) ) ( type_a3cce88d_7794_4626_9e84_e3acc602193e_Class41 ( obj_65aab02c_d6f8_4dae_bc23_176e08ec9273 o )  ) ) ( type_a3cce88d_7794_4626_9e84_e3acc602193e_Class2 ( obj_65aab02c_d6f8_4dae_bc23_176e08ec9273 o )  ) )):named c39))
(assert (! (exists ((o Int)) ( type_a3cce88d_7794_4626_9e84_e3acc602193e_Class45 ( obj_65aab02c_d6f8_4dae_bc23_176e08ec9273 o )  ) ):named c40))
(assert (! (exists ((o Int)) ( type_a3cce88d_7794_4626_9e84_e3acc602193e_Class5 ( obj_65aab02c_d6f8_4dae_bc23_176e08ec9273 o )  ) ):named c41))
(assert (! (exists ((o Int)) (and (and (and (and ( type_a3cce88d_7794_4626_9e84_e3acc602193e_Class6 ( obj_65aab02c_d6f8_4dae_bc23_176e08ec9273 o )  )  ( type_a3cce88d_7794_4626_9e84_e3acc602193e_Class22 ( obj_65aab02c_d6f8_4dae_bc23_176e08ec9273 o )  ) ) ( type_a3cce88d_7794_4626_9e84_e3acc602193e_Class35 ( obj_65aab02c_d6f8_4dae_bc23_176e08ec9273 o )  ) ) ( type_a3cce88d_7794_4626_9e84_e3acc602193e_Class2 ( obj_65aab02c_d6f8_4dae_bc23_176e08ec9273 o )  ) ) ( type_a3cce88d_7794_4626_9e84_e3acc602193e_Class42 ( obj_65aab02c_d6f8_4dae_bc23_176e08ec9273 o )  ) )):named c42))
(assert (! (exists ((o Int)) ( type_a3cce88d_7794_4626_9e84_e3acc602193e_Class7 ( obj_65aab02c_d6f8_4dae_bc23_176e08ec9273 o )  ) ):named c43))
(assert (! (exists ((o Int)) (and (and (and (and (and ( type_a3cce88d_7794_4626_9e84_e3acc602193e_Class8 ( obj_65aab02c_d6f8_4dae_bc23_176e08ec9273 o )  )  ( type_a3cce88d_7794_4626_9e84_e3acc602193e_Class16 ( obj_65aab02c_d6f8_4dae_bc23_176e08ec9273 o )  ) ) ( type_a3cce88d_7794_4626_9e84_e3acc602193e_Class15 ( obj_65aab02c_d6f8_4dae_bc23_176e08ec9273 o )  ) ) ( type_a3cce88d_7794_4626_9e84_e3acc602193e_Class41 ( obj_65aab02c_d6f8_4dae_bc23_176e08ec9273 o )  ) ) ( type_a3cce88d_7794_4626_9e84_e3acc602193e_Class10 ( obj_65aab02c_d6f8_4dae_bc23_176e08ec9273 o )  ) ) ( type_a3cce88d_7794_4626_9e84_e3acc602193e_Class2 ( obj_65aab02c_d6f8_4dae_bc23_176e08ec9273 o )  ) )):named c44))
(assert (! (exists ((o Int)) (and (and (and (and (and (and (and ( type_a3cce88d_7794_4626_9e84_e3acc602193e_Class9 ( obj_65aab02c_d6f8_4dae_bc23_176e08ec9273 o )  )  ( type_a3cce88d_7794_4626_9e84_e3acc602193e_Class22 ( obj_65aab02c_d6f8_4dae_bc23_176e08ec9273 o )  ) ) ( type_a3cce88d_7794_4626_9e84_e3acc602193e_Class35 ( obj_65aab02c_d6f8_4dae_bc23_176e08ec9273 o )  ) ) ( type_a3cce88d_7794_4626_9e84_e3acc602193e_Class16 ( obj_65aab02c_d6f8_4dae_bc23_176e08ec9273 o )  ) ) ( type_a3cce88d_7794_4626_9e84_e3acc602193e_Class15 ( obj_65aab02c_d6f8_4dae_bc23_176e08ec9273 o )  ) ) ( type_a3cce88d_7794_4626_9e84_e3acc602193e_Class0 ( obj_65aab02c_d6f8_4dae_bc23_176e08ec9273 o )  ) ) ( type_a3cce88d_7794_4626_9e84_e3acc602193e_Class41 ( obj_65aab02c_d6f8_4dae_bc23_176e08ec9273 o )  ) ) ( type_a3cce88d_7794_4626_9e84_e3acc602193e_Class2 ( obj_65aab02c_d6f8_4dae_bc23_176e08ec9273 o )  ) )):named c45))

 ;end of formula 